p edge 28 210
e 1 6 8
e 1 9 11
e 1 10 12
e 1 13 15
e 1 14 16
e 1 15 17
e 1 18 20
e 1 19 21
e 1 20 22
e 1 21 23
e 1 24 26
e 1 25 27
e 1 26 28
e 1 27 29
e 1 28 30
e 2 5 8
e 2 8 11
e 2 10 13
e 2 12 15
e 2 14 17
e 2 15 18
e 2 17 20
e 2 19 22
e 2 20 23
e 2 21 24
e 2 23 26
e 2 25 28
e 2 26 29
e 2 27 30
e 2 28 31
e 3 4 8
e 3 7 11
e 3 10 14
e 3 11 15
e 3 14 18
e 3 15 19
e 3 16 20
e 3 19 23
e 3 20 24
e 3 21 25
e 3 22 26
e 3 25 29
e 3 26 30
e 3 27 31
e 3 28 32
e 4 8 13
e 4 9 14
e 4 12 17
e 4 13 18
e 4 15 20
e 4 17 22
e 4 18 23
e 4 20 25
e 4 21 26
e 4 23 28
e 4 24 29
e 4 26 31
e 4 27 32
e 4 28 33
e 5 7 13
e 5 9 15
e 5 11 17
e 5 13 19
e 5 15 21
e 5 16 22
e 5 18 24
e 5 20 26
e 5 21 27
e 5 22 28
e 5 24 30
e 5 26 32
e 5 27 33
e 5 28 34
e 6 7 14
e 6 8 15
e 6 11 18
e 6 12 19
e 6 15 22
e 6 16 23
e 6 17 24
e 6 20 27
e 6 21 28
e 6 22 29
e 6 23 30
e 6 26 33
e 6 27 34
e 6 28 35
e 7 12 20
e 7 13 21
e 7 14 22
e 7 17 25
e 7 18 26
e 7 19 27
e 7 21 29
e 7 23 31
e 7 24 32
e 7 25 33
e 7 27 35
e 7 28 36
e 8 11 20
e 8 13 22
e 8 14 23
e 8 16 25
e 8 18 27
e 8 19 28
e 8 21 30
e 8 22 31
e 8 24 33
e 8 25 34
e 8 27 36
e 8 28 37
e 9 11 21
e 9 12 22
e 9 14 24
e 9 16 26
e 9 17 27
e 9 19 29
e 9 21 31
e 9 22 32
e 9 23 33
e 9 25 35
e 9 27 37
e 9 28 38
e 10 11 22
e 10 12 23
e 10 13 24
e 10 16 27
e 10 17 28
e 10 18 29
e 10 21 32
e 10 22 33
e 10 23 34
e 10 24 35
e 10 27 38
e 10 28 39
e 11 17 29
e 11 18 30
e 11 19 31
e 11 20 32
e 11 23 35
e 11 24 36
e 11 25 37
e 11 26 38
e 11 28 40
e 12 16 29
e 12 18 31
e 12 19 32
e 12 20 33
e 12 22 35
e 12 24 37
e 12 25 38
e 12 26 39
e 12 28 41
e 13 16 30
e 13 17 31
e 13 19 33
e 13 20 34
e 13 22 36
e 13 23 37
e 13 25 39
e 13 26 40
e 13 28 42
e 14 16 31
e 14 17 32
e 14 18 33
e 14 20 35
e 14 22 37
e 14 23 38
e 14 24 39
e 14 26 41
e 14 28 43
e 15 16 32
e 15 17 33
e 15 18 34
e 15 19 35
e 15 22 38
e 15 23 39
e 15 24 40
e 15 25 41
e 15 28 44
e 16 23 40
e 16 24 41
e 16 25 42
e 16 26 43
e 16 27 44
e 17 22 40
e 17 24 42
e 17 25 43
e 17 26 44
e 17 27 45
e 18 22 41
e 18 23 42
e 18 25 44
e 18 26 45
e 18 27 46
e 19 22 42
e 19 23 43
e 19 24 44
e 19 26 46
e 19 27 47
e 20 22 43
e 20 23 44
e 20 24 45
e 20 25 46
e 20 27 48
e 21 22 44
e 21 23 45
e 21 24 46
e 21 25 47
e 21 26 48
n 1 0
n 2 0
n 3 0
n 4 0
n 5 0
n 6 0
n 7 0
n 8 0
n 9 0
n 10 0
n 11 0
n 12 0
n 13 0
n 14 0
n 15 0
n 16 0
n 17 0
n 18 0
n 19 0
n 20 0
n 21 0
n 22 0
n 23 0
n 24 0
n 25 0
n 26 0
n 27 0
n 28 0
